sat
(
  (define-fun PriceProv8 () Int
    420)
  (define-fun C3_VM3 () Int
    0)
  (define-fun VM8Type () Int
    278)
  (define-fun C5_VM12 () Int
    0)
  (define-fun C5_VM7 () Int
    0)
  (define-fun C3_VM7 () Int
    0)
  (define-fun C5_VM4 () Int
    0)
  (define-fun StorageProv7 () Int
    4000)
  (define-fun ProcProv1 () Int
    4)
  (define-fun MemProv5 () Int
    15000)
  (define-fun C4_VM4 () Int
    0)
  (define-fun C5_VM3 () Int
    0)
  (define-fun StorageProv11 () Int
    4000)
  (define-fun C2_VM9 () Int
    1)
  (define-fun MemProv4 () Int
    15000)
  (define-fun VM4Type () Int
    316)
  (define-fun PriceProv10 () Int
    350)
  (define-fun ProcProv2 () Int
    4)
  (define-fun C4_VM12 () Int
    0)
  (define-fun PriceProv12 () Int
    350)
  (define-fun MemProv8 () Int
    15000)
  (define-fun C5_VM8 () Int
    1)
  (define-fun C1_VM8 () Int
    1)
  (define-fun C4_VM5 () Int
    0)
  (define-fun C5_VM2 () Int
    0)
  (define-fun C1_VM10 () Int
    1)
  (define-fun MemProv10 () Int
    15000)
  (define-fun C4_VM10 () Int
    0)
  (define-fun ProcProv3 () Int
    4)
  (define-fun ProcProv4 () Int
    4)
  (define-fun StorageProv2 () Int
    2000)
  (define-fun C5_VM9 () Int
    0)
  (define-fun StorageProv1 () Int
    2000)
  (define-fun C4_VM7 () Int
    0)
  (define-fun C2_VM10 () Int
    1)
  (define-fun C2_VM12 () Int
    1)
  (define-fun C1_VM3 () Int
    0)
  (define-fun C5_VM5 () Int
    0)
  (define-fun VM1Type () Int
    341)
  (define-fun C2_VM8 () Int
    0)
  (define-fun PriceProv6 () Int
    420)
  (define-fun C3_VM4 () Int
    0)
  (define-fun C3_VM10 () Int
    0)
  (define-fun VM2Type () Int
    341)
  (define-fun StorageProv12 () Int
    4000)
  (define-fun C4_VM8 () Int
    0)
  (define-fun C5_VM10 () Int
    0)
  (define-fun MemProv2 () Int
    7500)
  (define-fun C1_VM9 () Int
    1)
  (define-fun C3_VM12 () Int
    0)
  (define-fun C3_VM2 () Int
    0)
  (define-fun C4_VM9 () Int
    0)
  (define-fun C1_VM1 () Int
    0)
  (define-fun C3_VM11 () Int
    0)
  (define-fun ProcProv9 () Int
    4)
  (define-fun MemProv1 () Int
    7500)
  (define-fun ProcProv10 () Int
    4)
  (define-fun C1_VM4 () Int
    1)
  (define-fun C2_VM7 () Int
    1)
  (define-fun PriceProv11 () Int
    350)
  (define-fun StorageProv6 () Int
    2000)
  (define-fun C2_VM4 () Int
    1)
  (define-fun ProcProv7 () Int
    4)
  (define-fun ProcProv12 () Int
    4)
  (define-fun C3_VM1 () Int
    0)
  (define-fun C2_VM11 () Int
    1)
  (define-fun C1_VM5 () Int
    1)
  (define-fun ProcProv5 () Int
    4)
  (define-fun VM6Type () Int
    278)
  (define-fun PriceProv7 () Int
    350)
  (define-fun MemProv12 () Int
    15000)
  (define-fun ProcProv6 () Int
    8)
  (define-fun MemProv9 () Int
    15000)
  (define-fun C5_VM6 () Int
    1)
  (define-fun MemProv7 () Int
    15000)
  (define-fun VM7Type () Int
    316)
  (define-fun C4_VM6 () Int
    0)
  (define-fun PriceProv3 () Int
    210)
  (define-fun C2_VM6 () Int
    0)
  (define-fun VM3Type () Int
    341)
  (define-fun ProcProv8 () Int
    8)
  (define-fun StorageProv9 () Int
    4000)
  (define-fun StorageProv5 () Int
    4000)
  (define-fun C1_VM7 () Int
    1)
  (define-fun C3_VM5 () Int
    0)
  (define-fun C3_VM9 () Int
    0)
  (define-fun PriceProv9 () Int
    350)
  (define-fun PriceProv5 () Int
    350)
  (define-fun C3_VM8 () Int
    0)
  (define-fun PriceProv1 () Int
    210)
  (define-fun C4_VM11 () Int
    0)
  (define-fun MemProv6 () Int
    15000)
  (define-fun C2_VM2 () Int
    0)
  (define-fun C5_VM1 () Int
    0)
  (define-fun C4_VM3 () Int
    1)
  (define-fun StorageProv4 () Int
    4000)
  (define-fun VM5Type () Int
    316)
  (define-fun C4_VM2 () Int
    1)
  (define-fun VM9Type () Int
    316)
  (define-fun MemProv3 () Int
    7500)
  (define-fun VM10Type () Int
    316)
  (define-fun VM12Type () Int
    316)
  (define-fun C2_VM5 () Int
    1)
  (define-fun C5_VM11 () Int
    0)
  (define-fun C2_VM3 () Int
    0)
  (define-fun C1_VM12 () Int
    1)
  (define-fun StorageProv3 () Int
    2000)
  (define-fun C1_VM2 () Int
    0)
  (define-fun C2_VM1 () Int
    0)
  (define-fun PriceProv2 () Int
    210)
  (define-fun C3_VM6 () Int
    0)
  (define-fun StorageProv8 () Int
    2000)
  (define-fun C1_VM6 () Int
    1)
  (define-fun PriceProv4 () Int
    350)
  (define-fun C4_VM1 () Int
    1)
  (define-fun C1_VM11 () Int
    1)
  (define-fun ProcProv11 () Int
    4)
  (define-fun VM11Type () Int
    316)
  (define-fun MemProv11 () Int
    15000)
  (define-fun StorageProv10 () Int
    4000)
)
(objectives
 ( 5929)
 ((+ 0
   PriceProv1
   PriceProv2
   PriceProv3
   PriceProv4
   PriceProv5
   PriceProv6
   PriceProv7
   PriceProv8
   PriceProv9
   PriceProv10
   PriceProv11
   PriceProv12) 3920)
)
(:added-eqs                   32547671
 :arith-eq-adapter            151365860
 :arith-bound-propagations-lp 807093
 :arith-conflicts             279
 :arith-diseq                 180055350
 :arith-fixed-eqs             454799
 :arith-lower                 197515862
 :arith-make-feasible         16875050
 :arith-max-columns           639
 :arith-max-rows              38
 :arith-upper                 178538179
 :binary-propagations         425907380
 :bv-bit2core                 3145794
 :bv-dynamic-diseqs           200423504
 :bv->core-eq                 1807
 :conflicts                   190627
 :decisions                   89788437
 :del-clause                  257014571
 :final-checks                11813
 :max-memory                  459.12
 :maxsat-cores                5869
 :memory                      404.76
 :minimized-lits              633743
 :mk-bool-var                 104755374
 :mk-clause                   257021282
 :mk-clause-binary            47607
 :num-allocs                  840163618999820.00
 :num-checks                  19891
 :pb-conflicts                10286
 :pb-predicates               7
 :pb-propagations             535449
 :pb-resolves                 346
 :propagations                891280946
 :restarts                    625
 :rlimit-count                1966571512
 :time                        2230.67
 :total-time                  1187.33)
